benchmark/results/graph__15-1000-0.10-02_0/graph__15-1000-0.10-02_0_Quinton_Benders_aux.lp
\ This file has been generated by DOcplex
\ ENCODING=ISO-8859-1
\Problem name: Quinton Benders_auxiliary_sub

Minimize
 obj: 0.001150747986 pi_nr_a0 + 0.000956022945 pi_nr_a1
      + 0.001709740771 pi_nr_a2 + 0.000955109838 pi_nr_a3
      + 0.001831501832 pi_nr_a4 + 0.000905779902 pi_nr_a5
      + 0.001146788991 pi_nr_a6 + 0.000958772771 pi_nr_a7
      + 0.001011122346 pi_nr_a8 + 0.000851063830 pi_nr_a9
      + 0.001620745543 pi_nr_a10 + 0.000944287063 pi_nr_a11
      + 0.000881036033 pi_nr_a12 + 0.001085776278 pi_nr_a13
      + 0.001101321586 pi_nr_a14 + pi_p_a2_a4 + pi_p_a0_a8 + pi_p_a0_a10
      + pi_p_a12_a2 + pi_p_a5_a14 + pi_p_a1_a6 + pi_p_a8_a10 + pi_p_a14_a8
      + pi_p_a14_a11 + pi_p_a12_a14 + 2086.475061703423 pi_d_a0_a1_proc_1
      + 298.524938293189 pi_d_a1_a0_proc_1 + 2189.420552371023 pi_d_a0_a2_proc_0
      + 2375.687464594705 pi_d_a0_a2_proc_1 + 9.312535405295 pi_d_a2_a0_proc_0
      + 195.579447628977 pi_d_a2_a0_proc_1 + 2384.999857898326 pi_d_a0_a3_proc_1
      + 0.000142098286 pi_d_a3_a0_proc_1 + 0.984373095893 pi_d_a0_a4_proc_0
      + 0.015626907494 pi_d_a4_a0_proc_0 + 0.985225072694 pi_d_a0_a5_proc_0
      + 2347.729825017731 pi_d_a0_a5_proc_1 + 37.270174982269 pi_d_a5_a0_proc_0
      + 2384.014774927306 pi_d_a5_a0_proc_1 + 1.000000003388 pi_d_a0_a6_proc_0
      + 2385 pi_d_a0_a6_proc_1 - 0.000000000000 pi_d_a6_a0_proc_0
      + 2383.999999996612 pi_d_a6_a0_proc_1
      + 2384.999999996612 pi_d_a0_a7_proc_1 + 1.000000003388 pi_d_a0_a8_proc_0
      - 0.000000000000 pi_d_a8_a0_proc_0 + 1.000000003388 pi_d_a0_a9_proc_0
      - 0.000000000000 pi_d_a9_a0_proc_0 + 1.000000003388 pi_d_a0_a10_proc_0
      - 0.000000000000 pi_d_a10_a0_proc_0 + 2375.695170518348 pi_d_a0_a11_proc_1
      + 9.304829478264 pi_d_a11_a0_proc_1 + 2382.798348234171 pi_d_a0_a12_proc_0
      + 2383.999999996612 pi_d_a0_a12_proc_1 + 1.000000003388 pi_d_a12_a0_proc_0
      + 2.201651765829 pi_d_a12_a0_proc_1 + 1.002297018928 pi_d_a0_a13_proc_0
      + 2385 pi_d_a0_a13_proc_1 - 0.000000000000 pi_d_a13_a0_proc_0
      + 2383.997702981072 pi_d_a13_a0_proc_1
      + 75.484362493993 pi_d_a0_a14_proc_1
      + 2309.515637502619 pi_d_a14_a0_proc_1 + 1.016628032124 pi_d_a1_a2_proc_1
      + 186.250284194946 pi_d_a2_a1_proc_1 + pi_d_a1_a3_proc_1
      + 2344.521730010491 pi_d_a1_a5_proc_1 + 3.222869937934 pi_d_a5_a1_proc_1
      + 2384.999938711524 pi_d_a1_a6_proc_1 + 0.000061288476 pi_d_a6_a1_proc_1
      + pi_d_a1_a7_proc_1 + pi_d_a1_a11_proc_1
      + 1.201651731137 pi_d_a1_a12_proc_1 + 1.000000034692 pi_d_a12_a1_proc_1
      + 2384.997702984458 pi_d_a1_a13_proc_1 + 0.000000000002 pi_d_a13_a1_proc_1
      + 0.984334564888 pi_d_a1_a14_proc_1 + 0.015665435112 pi_d_a14_a1_proc_1
      + 149.078670577332 pi_d_a2_a3_proc_1 + 38.188241649738 pi_d_a3_a2_proc_1
      + 316.296471574940 pi_d_a2_a4_proc_0 + 1882.436616197990 pi_d_a4_a2_proc_0
      + 1806.611470507091 pi_d_a2_a5_proc_0
      + 1955.622982682586 pi_d_a2_a5_proc_1 + 429.377017317414 pi_d_a5_a2_proc_0
      + 578.388529492909 pi_d_a5_a2_proc_1 + 1873.566234973011 pi_d_a2_a6_proc_0
      + 2059.833147200081 pi_d_a2_a6_proc_1 + 325.166852799919 pi_d_a6_a2_proc_0
      + 511.433765026989 pi_d_a6_a2_proc_1 + 0.097156665059 pi_d_a2_a7_proc_1
      + 187.169755562011 pi_d_a7_a2_proc_1 + 2188.653320321072 pi_d_a2_a8_proc_0
      + 10.079767451858 pi_d_a8_a2_proc_0 + 1796.944371581772 pi_d_a2_a9_proc_0
      + 401.788716191158 pi_d_a9_a2_proc_0 + 103.400164400224 pi_d_a2_a10_proc_0
      + 2095.332923372706 pi_d_a10_a2_proc_0 + 0.218638716051 pi_d_a2_a11_proc_1
      + 187.048273511019 pi_d_a11_a2_proc_1
      + 2383.999999960608 pi_d_a2_a12_proc_0
      + 187.468563953506 pi_d_a2_a12_proc_1
      + 2197.531436046494 pi_d_a12_a2_proc_0 + 1.000000039392 pi_d_a12_a2_proc_1
      + 325.554666063588 pi_d_a2_a13_proc_0
      + 511.819281275117 pi_d_a2_a13_proc_1
      + 1873.180718724883 pi_d_a13_a2_proc_0
      + 2059.445333936412 pi_d_a13_a2_proc_1 + 0.016755106208 pi_d_a2_a14_proc_1
      + 187.250157120862 pi_d_a14_a2_proc_1 + 170.083713225911 pi_d_a3_a5_proc_1
      + 2177.660886722514 pi_d_a5_a3_proc_1
      + 2346.811945862828 pi_d_a3_a6_proc_1 + 38.188054137172 pi_d_a6_a3_proc_1
      + pi_d_a3_a7_proc_1 + pi_d_a3_a11_proc_1
      + 1.165274565610 pi_d_a3_a12_proc_1 + 1.036377200218 pi_d_a12_a3_proc_1
      + 2384.997702984459 pi_d_a3_a13_proc_1 + 0.921651365236 pi_d_a3_a14_proc_1
      + 0.078348634764 pi_d_a14_a3_proc_1 + 37.255399774041 pi_d_a4_a5_proc_0
      + 1.000000277534 pi_d_a5_a4_proc_0 + 0.019534018513 pi_d_a4_a6_proc_0
      + 0.980465981487 pi_d_a6_a4_proc_0 + 1.015626907494 pi_d_a4_a8_proc_0
      - 0.015626907494 pi_d_a8_a4_proc_0 + 1.000001907378 pi_d_a4_a9_proc_0
      - 0.000001907378 pi_d_a9_a4_proc_0 + 1.015626907494 pi_d_a4_a10_proc_0
      - 0.015626907494 pi_d_a10_a4_proc_0 + 1844.417264298368 pi_d_a4_a12_proc_0
      + 539.381083935804 pi_d_a12_a4_proc_0 + 1.000000000000 pi_d_a4_a13_proc_0
      + 0.002297015540 pi_d_a13_a4_proc_0 + 1.016479611507 pi_d_a5_a6_proc_0
      + 2347.761079559932 pi_d_a5_a6_proc_1 + 37.238920440068 pi_d_a6_a5_proc_0
      + 2383.983520388493 pi_d_a6_a5_proc_1 + 343.790621943175 pi_d_a5_a7_proc_1
      + 2003.953978005250 pi_d_a7_a5_proc_1 + 1.015627265123 pi_d_a5_a8_proc_0
      + 37.239772786452 pi_d_a8_a5_proc_0 + 1.021027039163 pi_d_a5_a9_proc_0
      + 37.234373012412 pi_d_a9_a5_proc_0 + 1.015627265123 pi_d_a5_a10_proc_0
      + 37.239772786452 pi_d_a10_a5_proc_0
      + 2030.625808263023 pi_d_a5_a11_proc_1
      + 317.118791685402 pi_d_a11_a5_proc_1
      + 2198.311871238493 pi_d_a5_a12_proc_0
      + 2162.258122952747 pi_d_a5_a12_proc_1
      + 222.741877047253 pi_d_a12_a5_proc_0
      + 186.688128761507 pi_d_a12_a5_proc_1 + 38.265650994409 pi_d_a5_a13_proc_0
      + 2385.007953927294 pi_d_a5_a13_proc_1 - 0.007953927294 pi_d_a13_a5_proc_0
      + 2346.734349005591 pi_d_a13_a5_proc_1
      + 75.472688537377 pi_d_a5_a14_proc_1
      + 2272.271911411049 pi_d_a14_a5_proc_1
      + 2048.992187500000 pi_d_a6_a7_proc_1 + 336.007812500000 pi_d_a7_a6_proc_1
      + pi_d_a6_a8_proc_0 - 0.000000000000 pi_d_a8_a6_proc_0 + pi_d_a6_a9_proc_0
      - 0.000000000000 pi_d_a9_a6_proc_0 + pi_d_a6_a10_proc_0
      - 0.000000000000 pi_d_a10_a6_proc_0 + 2384.999999982654 pi_d_a6_a11_proc_1
      + 0.000000017346 pi_d_a11_a6_proc_1 + 2375.812010095975 pi_d_a6_a12_proc_0
      + 2377.013661861803 pi_d_a6_a12_proc_1 + 7.986338138197 pi_d_a12_a6_proc_0
      + 9.187989904025 pi_d_a12_a6_proc_1 + 1.002296946215 pi_d_a6_a13_proc_0
      + 2384.999999930675 pi_d_a6_a13_proc_1 + 0.000000069325 pi_d_a13_a6_proc_0
      + 2383.997703053785 pi_d_a13_a6_proc_1
      + 2205.328256253034 pi_d_a6_a14_proc_1
      + 179.671743746966 pi_d_a14_a6_proc_1 + pi_d_a7_a11_proc_1
      + 1.162195001298 pi_d_a7_a12_proc_1 + 1.039456764531 pi_d_a12_a7_proc_1
      + 2384.131874718967 pi_d_a7_a13_proc_1 + 0.865828265493 pi_d_a13_a7_proc_1
      + 0.886738777161 pi_d_a7_a14_proc_1 + 0.113261222839 pi_d_a14_a7_proc_1
      + pi_d_a9_a8_proc_0 + pi_d_a8_a10_proc_0
      + 379.769122258710 pi_d_a8_a12_proc_0
      + 2004.029225975461 pi_d_a12_a8_proc_0 + 0.002297015541 pi_d_a8_a13_proc_0
      + pi_d_a13_a8_proc_0 + pi_d_a9_a10_proc_0
      + 46.365218598205 pi_d_a9_a12_proc_0
      + 2337.433129635966 pi_d_a12_a9_proc_0 + 0.002296946215 pi_d_a9_a13_proc_0
      + 1.000000069325 pi_d_a13_a9_proc_0 + 37.564793514315 pi_d_a10_a12_proc_0
      + 2346.233554719856 pi_d_a12_a10_proc_0
      + 0.002297015541 pi_d_a10_a13_proc_0 + pi_d_a13_a10_proc_0
      - 0.133884485311 pi_d_a11_a12_proc_1 + 2.335536251140 pi_d_a12_a11_proc_1
      + 2383.997702984458 pi_d_a11_a13_proc_1
      + 1.000000000002 pi_d_a13_a11_proc_1 + pi_d_a14_a11_proc_1
      + 343.431297862050 pi_d_a12_a13_proc_0
      + 344.630652612338 pi_d_a12_a13_proc_1
      + 2040.369347387662 pi_d_a13_a12_proc_0
      + 2041.568702137950 pi_d_a13_a12_proc_1
      + 2.201651765829 pi_d_a12_a14_proc_1 - 0.000000000000 pi_d_a14_a12_proc_1
      + 2029.522481037621 pi_d_a13_a14_proc_1
      + 355.475221946839 pi_d_a14_a13_proc_1 + 0.999999999999 pi_y2_a0_proc_0
      + 0.000000000001 pi_y2_a0_proc_1 + pi_y2_a1_proc_1
      + 0.078132094055 pi_y2_a2_proc_0 + 0.921867905945 pi_y2_a2_proc_1
      + pi_y2_a3_proc_1 + pi_y2_a4_proc_0 + 0.984372734878 pi_y2_a5_proc_0
      + 0.015627265122 pi_y2_a5_proc_1 + pi_y2_a6_proc_0
      + 0.000000000000 pi_y2_a6_proc_1 + pi_y2_a7_proc_1 + pi_y2_a8_proc_0
      + pi_y2_a9_proc_0 + pi_y2_a10_proc_0 + pi_y2_a11_proc_1
      + 0.000504048559 pi_y2_a12_proc_0 + 0.999495951441 pi_y2_a12_proc_1
      + 0.999999036487 pi_y2_a13_proc_0 + 0.000000963513 pi_y2_a13_proc_1
      + pi_y2_a14_proc_1
Subject To
 c1: 0.001150747986 pi_nr_a0 + 0.000956022945 pi_nr_a1 + 0.001736111111 pi_nr_a2
     + 0.000955109838 pi_nr_a3 + 0.001831501832 pi_nr_a4
     + 0.000903342367 pi_nr_a5 + 0.001146788991 pi_nr_a6
     + 0.000958772771 pi_nr_a7 + 0.001011122346 pi_nr_a8
     + 0.000851063830 pi_nr_a9 + 0.001620745543 pi_nr_a10
     + 0.000944287063 pi_nr_a11 + 0.000881057269 pi_nr_a12
     + 0.001085776330 pi_nr_a13 + 0.001101321586 pi_nr_a14 + pi_p_a2_a4
     + pi_p_a0_a8 + pi_p_a0_a10 + pi_p_a12_a2 + pi_p_a5_a14 + pi_p_a1_a6
     + pi_p_a8_a10 + pi_p_a14_a8 + pi_p_a14_a11 + pi_p_a12_a14
     + 2385 pi_d_a0_a1_proc_1 + 2385 pi_d_a0_a2_proc_0 + 2385 pi_d_a0_a2_proc_1
     + 2385 pi_d_a0_a3_proc_1 + pi_d_a0_a4_proc_0 + pi_d_a0_a5_proc_0
     + 2385 pi_d_a0_a5_proc_1 + 2384 pi_d_a5_a0_proc_1 + pi_d_a0_a6_proc_0
     + 2385 pi_d_a0_a6_proc_1 + 2384 pi_d_a6_a0_proc_1 + 2385 pi_d_a0_a7_proc_1
     + pi_d_a0_a8_proc_0 + pi_d_a0_a9_proc_0 + pi_d_a0_a10_proc_0
     + 2385 pi_d_a0_a11_proc_1 + 2384 pi_d_a0_a12_proc_0
     + 2384 pi_d_a0_a12_proc_1 + pi_d_a12_a0_proc_0 + pi_d_a12_a0_proc_1
     + pi_d_a0_a13_proc_0 + 2385 pi_d_a0_a13_proc_1 + 2384 pi_d_a13_a0_proc_1
     + pi_d_a0_a14_proc_1 + 2384 pi_d_a14_a0_proc_1 + pi_d_a1_a2_proc_1
     + pi_d_a1_a3_proc_1 + 2384 pi_d_a1_a5_proc_1 + pi_d_a5_a1_proc_1
     + 2385 pi_d_a1_a6_proc_1 + pi_d_a1_a7_proc_1 + pi_d_a1_a11_proc_1
     + pi_d_a12_a1_proc_1 + 2385 pi_d_a1_a13_proc_1 + pi_d_a1_a14_proc_1
     + pi_d_a3_a2_proc_1 + 2385 pi_d_a4_a2_proc_0 + 2384 pi_d_a2_a5_proc_0
     + 2384 pi_d_a2_a5_proc_1 + pi_d_a5_a2_proc_0 + pi_d_a5_a2_proc_1
     + 2384 pi_d_a2_a6_proc_0 + 2384 pi_d_a2_a6_proc_1 + pi_d_a6_a2_proc_0
     + pi_d_a6_a2_proc_1 + pi_d_a7_a2_proc_1 + 2384 pi_d_a2_a8_proc_0
     + pi_d_a8_a2_proc_0 + 2384 pi_d_a2_a9_proc_0 + pi_d_a9_a2_proc_0
     + pi_d_a2_a10_proc_0 + 2384 pi_d_a10_a2_proc_0 + pi_d_a11_a2_proc_1
     + 2384 pi_d_a2_a12_proc_0 + 2385 pi_d_a12_a2_proc_0 + pi_d_a12_a2_proc_1
     + 2385 pi_d_a13_a2_proc_0 + 2385 pi_d_a13_a2_proc_1 + pi_d_a14_a2_proc_1
     + 2385 pi_d_a5_a3_proc_1 + 2384 pi_d_a3_a6_proc_1 + pi_d_a6_a3_proc_1
     + pi_d_a3_a7_proc_1 + pi_d_a3_a11_proc_1 + pi_d_a12_a3_proc_1
     + 2385 pi_d_a3_a13_proc_1 + pi_d_a3_a14_proc_1 + pi_d_a5_a4_proc_0
     + pi_d_a6_a4_proc_0 + pi_d_a4_a8_proc_0 + pi_d_a4_a9_proc_0
     + pi_d_a4_a10_proc_0 + 2384 pi_d_a4_a12_proc_0 + pi_d_a12_a4_proc_0
     + pi_d_a4_a13_proc_0 + pi_d_a5_a6_proc_0 + 2385 pi_d_a5_a6_proc_1
     + 2384 pi_d_a6_a5_proc_1 + pi_d_a5_a7_proc_1 + 2384 pi_d_a7_a5_proc_1
     + pi_d_a5_a8_proc_0 + pi_d_a5_a9_proc_0 + pi_d_a5_a10_proc_0
     + 2385 pi_d_a5_a11_proc_1 + 2384 pi_d_a5_a12_proc_0
     + 2384 pi_d_a5_a12_proc_1 + pi_d_a12_a5_proc_0 + pi_d_a12_a5_proc_1
     + pi_d_a5_a13_proc_0 + 2385 pi_d_a5_a13_proc_1 + 2384 pi_d_a13_a5_proc_1
     + pi_d_a5_a14_proc_1 + 2384 pi_d_a14_a5_proc_1 + 2384 pi_d_a6_a7_proc_1
     + pi_d_a7_a6_proc_1 + pi_d_a6_a8_proc_0 + pi_d_a6_a9_proc_0
     + pi_d_a6_a10_proc_0 + 2385 pi_d_a6_a11_proc_1 + 2384 pi_d_a6_a12_proc_0
     + 2384 pi_d_a6_a12_proc_1 + pi_d_a12_a6_proc_0 + pi_d_a12_a6_proc_1
     + pi_d_a6_a13_proc_0 + 2385 pi_d_a6_a13_proc_1 + 2384 pi_d_a13_a6_proc_1
     + 2384 pi_d_a6_a14_proc_1 + pi_d_a14_a6_proc_1 + pi_d_a7_a11_proc_1
     + pi_d_a12_a7_proc_1 + 2384 pi_d_a7_a13_proc_1 + pi_d_a13_a7_proc_1
     + pi_d_a7_a14_proc_1 + pi_d_a9_a8_proc_0 + pi_d_a8_a10_proc_0
     + 2385 pi_d_a12_a8_proc_0 + pi_d_a13_a8_proc_0 + pi_d_a9_a10_proc_0
     + 2385 pi_d_a12_a9_proc_0 + pi_d_a13_a9_proc_0 + 2385 pi_d_a12_a10_proc_0
     + pi_d_a13_a10_proc_0 + pi_d_a12_a11_proc_1 + 2384 pi_d_a11_a13_proc_1
     + pi_d_a13_a11_proc_1 + pi_d_a14_a11_proc_1 + pi_d_a12_a13_proc_0
     + pi_d_a12_a13_proc_1 + 2384 pi_d_a13_a12_proc_0 + 2384 pi_d_a13_a12_proc_1
     + pi_d_a12_a14_proc_1 + 2384 pi_d_a13_a14_proc_1 + pi_d_a14_a13_proc_1
     + pi_y2_a0_proc_0 + pi_y2_a1_proc_1 + pi_y2_a2_proc_1 + pi_y2_a3_proc_1
     + pi_y2_a4_proc_0 + pi_y2_a5_proc_0 + pi_y2_a6_proc_0 + pi_y2_a7_proc_1
     + pi_y2_a8_proc_0 + pi_y2_a9_proc_0 + pi_y2_a10_proc_0 + pi_y2_a11_proc_1
     + pi_y2_a12_proc_1 + pi_y2_a13_proc_0 + pi_y2_a14_proc_1 = 0.000113288773
 c2: pi_nr_a0 + pi_nr_a1 + pi_nr_a2 + pi_nr_a3 + pi_nr_a4 + pi_nr_a5 + pi_nr_a6
     + pi_nr_a7 + pi_nr_a8 + pi_nr_a9 + pi_nr_a10 + pi_nr_a11 + pi_nr_a12
     + pi_nr_a13 + pi_nr_a14 - pi_y1_a0 - pi_y1_a1 - pi_y1_a2 - pi_y1_a3
     - pi_y1_a4 - pi_y1_a5 - pi_y1_a6 - pi_y1_a7 - pi_y1_a8 - pi_y1_a9
     - pi_y1_a10 - pi_y1_a11 - pi_y1_a12 - pi_y1_a13 - pi_y1_a14 >= 1
 c3: - pi_p_a1_a0 + pi_p_a0_a8 + pi_p_a0_a10 + pi_p_a0_a12 + pi_d_a0_a1_proc_1
     - pi_d_a1_a0_proc_1 + pi_d_a0_a2_proc_0 + pi_d_a0_a2_proc_1
     - pi_d_a2_a0_proc_0 - pi_d_a2_a0_proc_1 + pi_d_a0_a3_proc_1
     - pi_d_a3_a0_proc_1 + pi_d_a0_a4_proc_0 - pi_d_a4_a0_proc_0
     + pi_d_a0_a5_proc_0 + pi_d_a0_a5_proc_1 - pi_d_a5_a0_proc_0
     - pi_d_a5_a0_proc_1 + pi_d_a0_a6_proc_0 + pi_d_a0_a6_proc_1
     - pi_d_a6_a0_proc_0 - pi_d_a6_a0_proc_1 + pi_d_a0_a7_proc_1
     - pi_d_a7_a0_proc_1 + pi_d_a0_a8_proc_0 - pi_d_a8_a0_proc_0
     + pi_d_a0_a9_proc_0 - pi_d_a9_a0_proc_0 + pi_d_a0_a10_proc_0
     - pi_d_a10_a0_proc_0 + pi_d_a0_a11_proc_1 - pi_d_a11_a0_proc_1
     + pi_d_a0_a12_proc_0 + pi_d_a0_a12_proc_1 - pi_d_a12_a0_proc_0
     - pi_d_a12_a0_proc_1 + pi_d_a0_a13_proc_0 + pi_d_a0_a13_proc_1
     - pi_d_a13_a0_proc_0 - pi_d_a13_a0_proc_1 + pi_d_a0_a14_proc_1
     - pi_d_a14_a0_proc_1 >= 0
 c4: 869 pi_p_a0_a8 + 869 pi_p_a0_a10 + 869 pi_p_a0_a12 + 869 pi_d_a0_a2_proc_0
     + 869 pi_d_a0_a4_proc_0 + 869 pi_d_a0_a5_proc_0 + 869 pi_d_a0_a6_proc_0
     + 869 pi_d_a0_a8_proc_0 + 869 pi_d_a0_a9_proc_0 + 869 pi_d_a0_a10_proc_0
     + 869 pi_d_a0_a12_proc_0 + 869 pi_d_a0_a13_proc_0 + pi_y1_a0
     + pi_y2_a0_proc_0 >= 0
 c5: 919 pi_p_a0_a8 + 919 pi_p_a0_a10 + 919 pi_p_a0_a12 + 919 pi_d_a0_a1_proc_1
     + 919 pi_d_a0_a2_proc_1 + 919 pi_d_a0_a3_proc_1 + 919 pi_d_a0_a5_proc_1
     + 919 pi_d_a0_a6_proc_1 + 919 pi_d_a0_a7_proc_1 + 919 pi_d_a0_a11_proc_1
     + 919 pi_d_a0_a12_proc_1 + 919 pi_d_a0_a13_proc_1 + 919 pi_d_a0_a14_proc_1
     + pi_y1_a0 + pi_y2_a0_proc_1 >= 0
 c6: pi_p_a1_a0 - pi_p_a2_a1 - pi_p_a3_a1 - pi_p_a6_a1 + pi_p_a1_a6
     - pi_d_a0_a1_proc_1 + pi_d_a1_a0_proc_1 + pi_d_a1_a2_proc_1
     - pi_d_a2_a1_proc_1 + pi_d_a1_a3_proc_1 - pi_d_a3_a1_proc_1
     + pi_d_a1_a5_proc_1 - pi_d_a5_a1_proc_1 + pi_d_a1_a6_proc_1
     - pi_d_a6_a1_proc_1 + pi_d_a1_a7_proc_1 - pi_d_a7_a1_proc_1
     + pi_d_a1_a11_proc_1 - pi_d_a11_a1_proc_1 + pi_d_a1_a12_proc_1
     - pi_d_a12_a1_proc_1 + pi_d_a1_a13_proc_1 - pi_d_a13_a1_proc_1
     + pi_d_a1_a14_proc_1 - pi_d_a14_a1_proc_1 >= 0
 c7: 1046 pi_p_a1_a0 + 1046 pi_p_a1_a6 + 1046 pi_d_a1_a0_proc_1
     + 1046 pi_d_a1_a2_proc_1 + 1046 pi_d_a1_a3_proc_1 + 1046 pi_d_a1_a5_proc_1
     + 1046 pi_d_a1_a6_proc_1 + 1046 pi_d_a1_a7_proc_1 + 1046 pi_d_a1_a11_proc_1
     + 1046 pi_d_a1_a12_proc_1 + 1046 pi_d_a1_a13_proc_1
     + 1046 pi_d_a1_a14_proc_1 + pi_y1_a1 + pi_y2_a1_proc_1 >= 0
 c8: pi_p_a2_a1 + pi_p_a2_a4 - pi_p_a12_a2 - pi_d_a0_a2_proc_0
     - pi_d_a0_a2_proc_1 + pi_d_a2_a0_proc_0 + pi_d_a2_a0_proc_1
     - pi_d_a1_a2_proc_1 + pi_d_a2_a1_proc_1 + pi_d_a2_a3_proc_1
     - pi_d_a3_a2_proc_1 + pi_d_a2_a4_proc_0 - pi_d_a4_a2_proc_0
     + pi_d_a2_a5_proc_0 + pi_d_a2_a5_proc_1 - pi_d_a5_a2_proc_0
     - pi_d_a5_a2_proc_1 + pi_d_a2_a6_proc_0 + pi_d_a2_a6_proc_1
     - pi_d_a6_a2_proc_0 - pi_d_a6_a2_proc_1 + pi_d_a2_a7_proc_1
     - pi_d_a7_a2_proc_1 + pi_d_a2_a8_proc_0 - pi_d_a8_a2_proc_0
     + pi_d_a2_a9_proc_0 - pi_d_a9_a2_proc_0 + pi_d_a2_a10_proc_0
     - pi_d_a10_a2_proc_0 + pi_d_a2_a11_proc_1 - pi_d_a11_a2_proc_1
     + pi_d_a2_a12_proc_0 + pi_d_a2_a12_proc_1 - pi_d_a12_a2_proc_0
     - pi_d_a12_a2_proc_1 + pi_d_a2_a13_proc_0 + pi_d_a2_a13_proc_1
     - pi_d_a13_a2_proc_0 - pi_d_a13_a2_proc_1 + pi_d_a2_a14_proc_1
     - pi_d_a14_a2_proc_1 >= 0
 c9: 715 pi_p_a2_a1 + 715 pi_p_a2_a4 + 715 pi_d_a2_a0_proc_0
     + 715 pi_d_a2_a4_proc_0 + 715 pi_d_a2_a5_proc_0 + 715 pi_d_a2_a6_proc_0
     + 715 pi_d_a2_a8_proc_0 + 715 pi_d_a2_a9_proc_0 + 715 pi_d_a2_a10_proc_0
     + 715 pi_d_a2_a12_proc_0 + 715 pi_d_a2_a13_proc_0 + pi_y1_a2
     + pi_y2_a2_proc_0 >= 0
 c10: 576 pi_p_a2_a1 + 576 pi_p_a2_a4 + 576 pi_d_a2_a0_proc_1
      + 576 pi_d_a2_a1_proc_1 + 576 pi_d_a2_a3_proc_1 + 576 pi_d_a2_a5_proc_1
      + 576 pi_d_a2_a6_proc_1 + 576 pi_d_a2_a7_proc_1 + 576 pi_d_a2_a11_proc_1
      + 576 pi_d_a2_a12_proc_1 + 576 pi_d_a2_a13_proc_1 + 576 pi_d_a2_a14_proc_1
      + pi_y1_a2 + pi_y2_a2_proc_1 >= 0
 c11: pi_p_a3_a1 - pi_p_a7_a3 - pi_p_a13_a3 - pi_d_a0_a3_proc_1
      + pi_d_a3_a0_proc_1 - pi_d_a1_a3_proc_1 + pi_d_a3_a1_proc_1
      - pi_d_a2_a3_proc_1 + pi_d_a3_a2_proc_1 + pi_d_a3_a5_proc_1
      - pi_d_a5_a3_proc_1 + pi_d_a3_a6_proc_1 - pi_d_a6_a3_proc_1
      + pi_d_a3_a7_proc_1 - pi_d_a7_a3_proc_1 + pi_d_a3_a11_proc_1
      - pi_d_a11_a3_proc_1 + pi_d_a3_a12_proc_1 - pi_d_a12_a3_proc_1
      + pi_d_a3_a13_proc_1 - pi_d_a13_a3_proc_1 + pi_d_a3_a14_proc_1
      - pi_d_a14_a3_proc_1 >= 0
 c12: 1047 pi_p_a3_a1 + 1047 pi_d_a3_a0_proc_1 + 1047 pi_d_a3_a1_proc_1
      + 1047 pi_d_a3_a2_proc_1 + 1047 pi_d_a3_a5_proc_1 + 1047 pi_d_a3_a6_proc_1
      + 1047 pi_d_a3_a7_proc_1 + 1047 pi_d_a3_a11_proc_1
      + 1047 pi_d_a3_a12_proc_1 + 1047 pi_d_a3_a13_proc_1
      + 1047 pi_d_a3_a14_proc_1 + pi_y1_a3 + pi_y2_a3_proc_1 >= 0
 c13: - pi_p_a2_a4 + pi_p_a4_a5 - pi_p_a13_a4 - pi_p_a11_a4 - pi_d_a0_a4_proc_0
      + pi_d_a4_a0_proc_0 - pi_d_a2_a4_proc_0 + pi_d_a4_a2_proc_0
      + pi_d_a4_a5_proc_0 - pi_d_a5_a4_proc_0 + pi_d_a4_a6_proc_0
      - pi_d_a6_a4_proc_0 + pi_d_a4_a8_proc_0 - pi_d_a8_a4_proc_0
      + pi_d_a4_a9_proc_0 - pi_d_a9_a4_proc_0 + pi_d_a4_a10_proc_0
      - pi_d_a10_a4_proc_0 + pi_d_a4_a12_proc_0 - pi_d_a12_a4_proc_0
      + pi_d_a4_a13_proc_0 - pi_d_a13_a4_proc_0 >= 0
 c14: 546 pi_p_a4_a5 + 546 pi_d_a4_a0_proc_0 + 546 pi_d_a4_a2_proc_0
      + 546 pi_d_a4_a5_proc_0 + 546 pi_d_a4_a6_proc_0 + 546 pi_d_a4_a8_proc_0
      + 546 pi_d_a4_a9_proc_0 + 546 pi_d_a4_a10_proc_0 + 546 pi_d_a4_a12_proc_0
      + 546 pi_d_a4_a13_proc_0 + pi_y1_a4 + pi_y2_a4_proc_0 >= 0
 c15: - pi_p_a4_a5 + pi_p_a5_a14 - pi_d_a0_a5_proc_0 - pi_d_a0_a5_proc_1
      + pi_d_a5_a0_proc_0 + pi_d_a5_a0_proc_1 - pi_d_a1_a5_proc_1
      + pi_d_a5_a1_proc_1 - pi_d_a2_a5_proc_0 - pi_d_a2_a5_proc_1
      + pi_d_a5_a2_proc_0 + pi_d_a5_a2_proc_1 - pi_d_a3_a5_proc_1
      + pi_d_a5_a3_proc_1 - pi_d_a4_a5_proc_0 + pi_d_a5_a4_proc_0
      + pi_d_a5_a6_proc_0 + pi_d_a5_a6_proc_1 - pi_d_a6_a5_proc_0
      - pi_d_a6_a5_proc_1 + pi_d_a5_a7_proc_1 - pi_d_a7_a5_proc_1
      + pi_d_a5_a8_proc_0 - pi_d_a8_a5_proc_0 + pi_d_a5_a9_proc_0
      - pi_d_a9_a5_proc_0 + pi_d_a5_a10_proc_0 - pi_d_a10_a5_proc_0
      + pi_d_a5_a11_proc_1 - pi_d_a11_a5_proc_1 + pi_d_a5_a12_proc_0
      + pi_d_a5_a12_proc_1 - pi_d_a12_a5_proc_0 - pi_d_a12_a5_proc_1
      + pi_d_a5_a13_proc_0 + pi_d_a5_a13_proc_1 - pi_d_a13_a5_proc_0
      - pi_d_a13_a5_proc_1 + pi_d_a5_a14_proc_1 - pi_d_a14_a5_proc_1 >= 0
 c16: 1107 pi_p_a5_a14 + 1107 pi_d_a5_a0_proc_0 + 1107 pi_d_a5_a2_proc_0
      + 1107 pi_d_a5_a4_proc_0 + 1107 pi_d_a5_a6_proc_0 + 1107 pi_d_a5_a8_proc_0
      + 1107 pi_d_a5_a9_proc_0 + 1107 pi_d_a5_a10_proc_0
      + 1107 pi_d_a5_a12_proc_0 + 1107 pi_d_a5_a13_proc_0 + pi_y1_a5
      + pi_y2_a5_proc_0 >= 0
 c17: 944 pi_p_a5_a14 + 944 pi_d_a5_a0_proc_1 + 944 pi_d_a5_a1_proc_1
      + 944 pi_d_a5_a2_proc_1 + 944 pi_d_a5_a3_proc_1 + 944 pi_d_a5_a6_proc_1
      + 944 pi_d_a5_a7_proc_1 + 944 pi_d_a5_a11_proc_1 + 944 pi_d_a5_a12_proc_1
      + 944 pi_d_a5_a13_proc_1 + 944 pi_d_a5_a14_proc_1 + pi_y1_a5
      + pi_y2_a5_proc_1 >= 0
 c18: pi_p_a6_a1 - pi_p_a1_a6 - pi_p_a7_a6 - pi_d_a0_a6_proc_0
      - pi_d_a0_a6_proc_1 + pi_d_a6_a0_proc_0 + pi_d_a6_a0_proc_1
      - pi_d_a1_a6_proc_1 + pi_d_a6_a1_proc_1 - pi_d_a2_a6_proc_0
      - pi_d_a2_a6_proc_1 + pi_d_a6_a2_proc_0 + pi_d_a6_a2_proc_1
      - pi_d_a3_a6_proc_1 + pi_d_a6_a3_proc_1 - pi_d_a4_a6_proc_0
      + pi_d_a6_a4_proc_0 - pi_d_a5_a6_proc_0 - pi_d_a5_a6_proc_1
      + pi_d_a6_a5_proc_0 + pi_d_a6_a5_proc_1 + pi_d_a6_a7_proc_1
      - pi_d_a7_a6_proc_1 + pi_d_a6_a8_proc_0 - pi_d_a8_a6_proc_0
      + pi_d_a6_a9_proc_0 - pi_d_a9_a6_proc_0 + pi_d_a6_a10_proc_0
      - pi_d_a10_a6_proc_0 + pi_d_a6_a11_proc_1 - pi_d_a11_a6_proc_1
      + pi_d_a6_a12_proc_0 + pi_d_a6_a12_proc_1 - pi_d_a12_a6_proc_0
      - pi_d_a12_a6_proc_1 + pi_d_a6_a13_proc_0 + pi_d_a6_a13_proc_1
      - pi_d_a13_a6_proc_0 - pi_d_a13_a6_proc_1 + pi_d_a6_a14_proc_1
      - pi_d_a14_a6_proc_1 >= 0
 c19: 872 pi_p_a6_a1 + 872 pi_d_a6_a0_proc_0 + 872 pi_d_a6_a2_proc_0
      + 872 pi_d_a6_a4_proc_0 + 872 pi_d_a6_a5_proc_0 + 872 pi_d_a6_a8_proc_0
      + 872 pi_d_a6_a9_proc_0 + 872 pi_d_a6_a10_proc_0 + 872 pi_d_a6_a12_proc_0
      + 872 pi_d_a6_a13_proc_0 + pi_y1_a6 + pi_y2_a6_proc_0 >= 0
 c20: 942 pi_p_a6_a1 + 942 pi_d_a6_a0_proc_1 + 942 pi_d_a6_a1_proc_1
      + 942 pi_d_a6_a2_proc_1 + 942 pi_d_a6_a3_proc_1 + 942 pi_d_a6_a5_proc_1
      + 942 pi_d_a6_a7_proc_1 + 942 pi_d_a6_a11_proc_1 + 942 pi_d_a6_a12_proc_1
      + 942 pi_d_a6_a13_proc_1 + 942 pi_d_a6_a14_proc_1 + pi_y1_a6
      + pi_y2_a6_proc_1 >= 0
 c21: pi_p_a7_a3 - pi_p_a13_a7 + pi_p_a7_a6 - pi_d_a0_a7_proc_1
      + pi_d_a7_a0_proc_1 - pi_d_a1_a7_proc_1 + pi_d_a7_a1_proc_1
      - pi_d_a2_a7_proc_1 + pi_d_a7_a2_proc_1 - pi_d_a3_a7_proc_1
      + pi_d_a7_a3_proc_1 - pi_d_a5_a7_proc_1 + pi_d_a7_a5_proc_1
      - pi_d_a6_a7_proc_1 + pi_d_a7_a6_proc_1 + pi_d_a7_a11_proc_1
      - pi_d_a11_a7_proc_1 + pi_d_a7_a12_proc_1 - pi_d_a12_a7_proc_1
      + pi_d_a7_a13_proc_1 - pi_d_a13_a7_proc_1 + pi_d_a7_a14_proc_1
      - pi_d_a14_a7_proc_1 >= 0
 c22: 1043 pi_p_a7_a3 + 1043 pi_p_a7_a6 + 1043 pi_d_a7_a0_proc_1
      + 1043 pi_d_a7_a1_proc_1 + 1043 pi_d_a7_a2_proc_1 + 1043 pi_d_a7_a3_proc_1
      + 1043 pi_d_a7_a5_proc_1 + 1043 pi_d_a7_a6_proc_1
      + 1043 pi_d_a7_a11_proc_1 + 1043 pi_d_a7_a12_proc_1
      + 1043 pi_d_a7_a13_proc_1 + 1043 pi_d_a7_a14_proc_1 + pi_y1_a7
      + pi_y2_a7_proc_1 >= 0
 c23: - pi_p_a0_a8 + pi_p_a8_a9 + pi_p_a8_a11 + pi_p_a8_a10 - pi_p_a14_a8
      - pi_p_a10_a8 - pi_d_a0_a8_proc_0 + pi_d_a8_a0_proc_0 - pi_d_a2_a8_proc_0
      + pi_d_a8_a2_proc_0 - pi_d_a4_a8_proc_0 + pi_d_a8_a4_proc_0
      - pi_d_a5_a8_proc_0 + pi_d_a8_a5_proc_0 - pi_d_a6_a8_proc_0
      + pi_d_a8_a6_proc_0 + pi_d_a8_a9_proc_0 - pi_d_a9_a8_proc_0
      + pi_d_a8_a10_proc_0 - pi_d_a10_a8_proc_0 + pi_d_a8_a12_proc_0
      - pi_d_a12_a8_proc_0 + pi_d_a8_a13_proc_0 - pi_d_a13_a8_proc_0 >= 0
 c24: 989 pi_p_a8_a9 + 989 pi_p_a8_a11 + 989 pi_p_a8_a10 + 989 pi_d_a8_a0_proc_0
      + 989 pi_d_a8_a2_proc_0 + 989 pi_d_a8_a4_proc_0 + 989 pi_d_a8_a5_proc_0
      + 989 pi_d_a8_a6_proc_0 + 989 pi_d_a8_a9_proc_0 + 989 pi_d_a8_a10_proc_0
      + 989 pi_d_a8_a12_proc_0 + 989 pi_d_a8_a13_proc_0 + pi_y1_a8
      + pi_y2_a8_proc_0 >= 0
 c25: - pi_p_a8_a9 - pi_p_a10_a9 + pi_p_a9_a11 - pi_d_a0_a9_proc_0
      + pi_d_a9_a0_proc_0 - pi_d_a2_a9_proc_0 + pi_d_a9_a2_proc_0
      - pi_d_a4_a9_proc_0 + pi_d_a9_a4_proc_0 - pi_d_a5_a9_proc_0
      + pi_d_a9_a5_proc_0 - pi_d_a6_a9_proc_0 + pi_d_a9_a6_proc_0
      - pi_d_a8_a9_proc_0 + pi_d_a9_a8_proc_0 + pi_d_a9_a10_proc_0
      - pi_d_a10_a9_proc_0 + pi_d_a9_a12_proc_0 - pi_d_a12_a9_proc_0
      + pi_d_a9_a13_proc_0 - pi_d_a13_a9_proc_0 >= 0
 c26: 1175 pi_p_a9_a11 + 1175 pi_d_a9_a0_proc_0 + 1175 pi_d_a9_a2_proc_0
      + 1175 pi_d_a9_a4_proc_0 + 1175 pi_d_a9_a5_proc_0 + 1175 pi_d_a9_a6_proc_0
      + 1175 pi_d_a9_a8_proc_0 + 1175 pi_d_a9_a10_proc_0
      + 1175 pi_d_a9_a12_proc_0 + 1175 pi_d_a9_a13_proc_0 + pi_y1_a9
      + pi_y2_a9_proc_0 >= 0
 c27: - pi_p_a0_a10 + pi_p_a10_a9 - pi_p_a8_a10 + pi_p_a10_a8
      - pi_d_a0_a10_proc_0 + pi_d_a10_a0_proc_0 - pi_d_a2_a10_proc_0
      + pi_d_a10_a2_proc_0 - pi_d_a4_a10_proc_0 + pi_d_a10_a4_proc_0
      - pi_d_a5_a10_proc_0 + pi_d_a10_a5_proc_0 - pi_d_a6_a10_proc_0
      + pi_d_a10_a6_proc_0 - pi_d_a8_a10_proc_0 + pi_d_a10_a8_proc_0
      - pi_d_a9_a10_proc_0 + pi_d_a10_a9_proc_0 + pi_d_a10_a12_proc_0
      - pi_d_a12_a10_proc_0 + pi_d_a10_a13_proc_0 - pi_d_a13_a10_proc_0 >= 0
 c28: 617 pi_p_a10_a9 + 617 pi_p_a10_a8 + 617 pi_d_a10_a0_proc_0
      + 617 pi_d_a10_a2_proc_0 + 617 pi_d_a10_a4_proc_0 + 617 pi_d_a10_a5_proc_0
      + 617 pi_d_a10_a6_proc_0 + 617 pi_d_a10_a8_proc_0 + 617 pi_d_a10_a9_proc_0
      + 617 pi_d_a10_a12_proc_0 + 617 pi_d_a10_a13_proc_0 + pi_y1_a10
      + pi_y2_a10_proc_0 >= 0
 c29: - pi_p_a8_a11 - pi_p_a14_a11 + pi_p_a11_a13 - pi_p_a9_a11 + pi_p_a11_a14
      + pi_p_a11_a4 - pi_d_a0_a11_proc_1 + pi_d_a11_a0_proc_1
      - pi_d_a1_a11_proc_1 + pi_d_a11_a1_proc_1 - pi_d_a2_a11_proc_1
      + pi_d_a11_a2_proc_1 - pi_d_a3_a11_proc_1 + pi_d_a11_a3_proc_1
      - pi_d_a5_a11_proc_1 + pi_d_a11_a5_proc_1 - pi_d_a6_a11_proc_1
      + pi_d_a11_a6_proc_1 - pi_d_a7_a11_proc_1 + pi_d_a11_a7_proc_1
      + pi_d_a11_a12_proc_1 - pi_d_a12_a11_proc_1 + pi_d_a11_a13_proc_1
      - pi_d_a13_a11_proc_1 + pi_d_a11_a14_proc_1 - pi_d_a14_a11_proc_1 >= 0
 c30: 1059 pi_p_a11_a13 + 1059 pi_p_a11_a14 + 1059 pi_p_a11_a4
      + 1059 pi_d_a11_a0_proc_1 + 1059 pi_d_a11_a1_proc_1
      + 1059 pi_d_a11_a2_proc_1 + 1059 pi_d_a11_a3_proc_1
      + 1059 pi_d_a11_a5_proc_1 + 1059 pi_d_a11_a6_proc_1
      + 1059 pi_d_a11_a7_proc_1 + 1059 pi_d_a11_a12_proc_1
      + 1059 pi_d_a11_a13_proc_1 + 1059 pi_d_a11_a14_proc_1 + pi_y1_a11
      + pi_y2_a11_proc_1 >= 0
 c31: pi_p_a12_a2 - pi_p_a14_a12 - pi_p_a0_a12 + pi_p_a12_a14
      - pi_d_a0_a12_proc_0 - pi_d_a0_a12_proc_1 + pi_d_a12_a0_proc_0
      + pi_d_a12_a0_proc_1 - pi_d_a1_a12_proc_1 + pi_d_a12_a1_proc_1
      - pi_d_a2_a12_proc_0 - pi_d_a2_a12_proc_1 + pi_d_a12_a2_proc_0
      + pi_d_a12_a2_proc_1 - pi_d_a3_a12_proc_1 + pi_d_a12_a3_proc_1
      - pi_d_a4_a12_proc_0 + pi_d_a12_a4_proc_0 - pi_d_a5_a12_proc_0
      - pi_d_a5_a12_proc_1 + pi_d_a12_a5_proc_0 + pi_d_a12_a5_proc_1
      - pi_d_a6_a12_proc_0 - pi_d_a6_a12_proc_1 + pi_d_a12_a6_proc_0
      + pi_d_a12_a6_proc_1 - pi_d_a7_a12_proc_1 + pi_d_a12_a7_proc_1
      - pi_d_a8_a12_proc_0 + pi_d_a12_a8_proc_0 - pi_d_a9_a12_proc_0
      + pi_d_a12_a9_proc_0 - pi_d_a10_a12_proc_0 + pi_d_a12_a10_proc_0
      - pi_d_a11_a12_proc_1 + pi_d_a12_a11_proc_1 + pi_d_a12_a13_proc_0
      + pi_d_a12_a13_proc_1 - pi_d_a13_a12_proc_0 - pi_d_a13_a12_proc_1
      + pi_d_a12_a14_proc_1 - pi_d_a14_a12_proc_1 >= 0
 c32: 1192 pi_p_a12_a2 + 1192 pi_p_a12_a14 + 1192 pi_d_a12_a0_proc_0
      + 1192 pi_d_a12_a2_proc_0 + 1192 pi_d_a12_a4_proc_0
      + 1192 pi_d_a12_a5_proc_0 + 1192 pi_d_a12_a6_proc_0
      + 1192 pi_d_a12_a8_proc_0 + 1192 pi_d_a12_a9_proc_0
      + 1192 pi_d_a12_a10_proc_0 + 1192 pi_d_a12_a13_proc_0 + pi_y1_a12
      + pi_y2_a12_proc_0 >= 0
 c33: 1135 pi_p_a12_a2 + 1135 pi_p_a12_a14 + 1135 pi_d_a12_a0_proc_1
      + 1135 pi_d_a12_a1_proc_1 + 1135 pi_d_a12_a2_proc_1
      + 1135 pi_d_a12_a3_proc_1 + 1135 pi_d_a12_a5_proc_1
      + 1135 pi_d_a12_a6_proc_1 + 1135 pi_d_a12_a7_proc_1
      + 1135 pi_d_a12_a11_proc_1 + 1135 pi_d_a12_a13_proc_1
      + 1135 pi_d_a12_a14_proc_1 + pi_y1_a12 + pi_y2_a12_proc_1 >= 0
 c34: pi_p_a13_a7 + pi_p_a13_a4 - pi_p_a11_a13 + pi_p_a13_a3
      - pi_d_a0_a13_proc_0 - pi_d_a0_a13_proc_1 + pi_d_a13_a0_proc_0
      + pi_d_a13_a0_proc_1 - pi_d_a1_a13_proc_1 + pi_d_a13_a1_proc_1
      - pi_d_a2_a13_proc_0 - pi_d_a2_a13_proc_1 + pi_d_a13_a2_proc_0
      + pi_d_a13_a2_proc_1 - pi_d_a3_a13_proc_1 + pi_d_a13_a3_proc_1
      - pi_d_a4_a13_proc_0 + pi_d_a13_a4_proc_0 - pi_d_a5_a13_proc_0
      - pi_d_a5_a13_proc_1 + pi_d_a13_a5_proc_0 + pi_d_a13_a5_proc_1
      - pi_d_a6_a13_proc_0 - pi_d_a6_a13_proc_1 + pi_d_a13_a6_proc_0
      + pi_d_a13_a6_proc_1 - pi_d_a7_a13_proc_1 + pi_d_a13_a7_proc_1
      - pi_d_a8_a13_proc_0 + pi_d_a13_a8_proc_0 - pi_d_a9_a13_proc_0
      + pi_d_a13_a9_proc_0 - pi_d_a10_a13_proc_0 + pi_d_a13_a10_proc_0
      - pi_d_a11_a13_proc_1 + pi_d_a13_a11_proc_1 - pi_d_a12_a13_proc_0
      - pi_d_a12_a13_proc_1 + pi_d_a13_a12_proc_0 + pi_d_a13_a12_proc_1
      + pi_d_a13_a14_proc_1 - pi_d_a14_a13_proc_1 >= 0
 c35: 921 pi_p_a13_a7 + 921 pi_p_a13_a4 + 921 pi_p_a13_a3
      + 921 pi_d_a13_a0_proc_0 + 921 pi_d_a13_a2_proc_0 + 921 pi_d_a13_a4_proc_0
      + 921 pi_d_a13_a5_proc_0 + 921 pi_d_a13_a6_proc_0 + 921 pi_d_a13_a8_proc_0
      + 921 pi_d_a13_a9_proc_0 + 921 pi_d_a13_a10_proc_0
      + 921 pi_d_a13_a12_proc_0 + pi_y1_a13 + pi_y2_a13_proc_0 >= 0
 c36: 969 pi_p_a13_a7 + 969 pi_p_a13_a4 + 969 pi_p_a13_a3
      + 969 pi_d_a13_a0_proc_1 + 969 pi_d_a13_a1_proc_1 + 969 pi_d_a13_a2_proc_1
      + 969 pi_d_a13_a3_proc_1 + 969 pi_d_a13_a5_proc_1 + 969 pi_d_a13_a6_proc_1
      + 969 pi_d_a13_a7_proc_1 + 969 pi_d_a13_a11_proc_1
      + 969 pi_d_a13_a12_proc_1 + 969 pi_d_a13_a14_proc_1 + pi_y1_a13
      + pi_y2_a13_proc_1 >= 0
 c37: pi_p_a14_a12 - pi_p_a5_a14 + pi_p_a14_a8 + pi_p_a14_a11 - pi_p_a11_a14
      - pi_p_a12_a14 - pi_d_a0_a14_proc_1 + pi_d_a14_a0_proc_1
      - pi_d_a1_a14_proc_1 + pi_d_a14_a1_proc_1 - pi_d_a2_a14_proc_1
      + pi_d_a14_a2_proc_1 - pi_d_a3_a14_proc_1 + pi_d_a14_a3_proc_1
      - pi_d_a5_a14_proc_1 + pi_d_a14_a5_proc_1 - pi_d_a6_a14_proc_1
      + pi_d_a14_a6_proc_1 - pi_d_a7_a14_proc_1 + pi_d_a14_a7_proc_1
      - pi_d_a11_a14_proc_1 + pi_d_a14_a11_proc_1 - pi_d_a12_a14_proc_1
      + pi_d_a14_a12_proc_1 - pi_d_a13_a14_proc_1 + pi_d_a14_a13_proc_1 >= 0
 c38: 908 pi_p_a14_a12 + 908 pi_p_a14_a8 + 908 pi_p_a14_a11
      + 908 pi_d_a14_a0_proc_1 + 908 pi_d_a14_a1_proc_1 + 908 pi_d_a14_a2_proc_1
      + 908 pi_d_a14_a3_proc_1 + 908 pi_d_a14_a5_proc_1 + 908 pi_d_a14_a6_proc_1
      + 908 pi_d_a14_a7_proc_1 + 908 pi_d_a14_a11_proc_1
      + 908 pi_d_a14_a12_proc_1 + 908 pi_d_a14_a13_proc_1 + pi_y1_a14
      + pi_y2_a14_proc_1 >= 0

Bounds
       pi_y1_a0 Free
       pi_y1_a1 Free
       pi_y1_a2 Free
       pi_y1_a3 Free
       pi_y1_a4 Free
       pi_y1_a5 Free
       pi_y1_a6 Free
       pi_y1_a7 Free
       pi_y1_a8 Free
       pi_y1_a9 Free
       pi_y1_a10 Free
       pi_y1_a11 Free
       pi_y1_a12 Free
       pi_y1_a13 Free
       pi_y1_a14 Free
End
