benchmark/results/graph__15-1000-0.10-02_0/graph__15-1000-0.10-02_0_Quinton_Benders_aux.txt
solution for: Quinton Benders_auxiliary_sub
objective: 0.000114077
status: OPTIMAL_SOLUTION(2)
pi_p_a1_a0=0.000
pi_p_a0_a10=0.000
pi_p_a13_a7=0.000
pi_p_a11_a13=0.000
pi_p_a9_a11=0.000
pi_d_a3_a1_proc_1=0.000
pi_d_a7_a3_proc_1=0.000
pi_d_a8_a9_proc_0=0.000
pi_d_a10_a8_proc_0=0.000
pi_y1_a0=-0.099
pi_y1_a1=-0.119
pi_y1_a3=-0.119
pi_y1_a7=-0.119
pi_y1_a8=-0.113
pi_y1_a9=-0.134
pi_y1_a10=-0.070
pi_y1_a11=-0.121
pi_y1_a13=-0.105
